TYPE : Vertex Cover
DIMENSION: 30
EDGE_DATA_SECTION:
0 2
0 3
0 6
0 15
0 16
0 22
0 27
1 2
1 3
1 6
1 11
1 14
1 15
1 21
1 22
2 3
2 5
2 6
2 11
2 14
2 23
2 24
2 25
2 27
2 28
2 29
3 6
3 10
3 11
3 13
3 14
3 15
3 16
3 20
3 27
3 28
4 6
4 13
4 16
4 17
4 22
4 23
4 27
4 28
5 9
5 15
5 17
5 20
5 26
5 27
6 7
6 8
6 14
6 15
6 20
6 22
6 23
6 25
7 11
7 12
7 18
7 19
7 25
7 26
7 28
8 11
8 12
8 13
8 15
9 14
9 16
9 18
9 19
9 22
9 23
9 26
9 27
10 12
10 13
10 15
10 16
10 21
10 27
11 18
11 20
11 22
11 23
11 28
12 13
12 14
12 18
12 19
12 22
12 26
12 29
13 17
13 20
13 21
13 23
13 26
13 28
13 29
14 27
14 29
15 16
15 18
15 20
15 21
15 26
16 17
16 20
16 25
16 26
16 27
17 19
17 21
17 22
17 25
17 27
17 29
18 21
18 26
18 27
19 22
19 23
20 28
20 29
21 23
21 24
22 24
22 29
23 27
24 26
24 27
24 28
25 28
25 29
26 27
27 28
-1
VERTEX_DEGREE:
7.0 8.0 13.0 13.0 8.0 7.0 13.0 8.0 5.0 9.0 7.0 10.0 10.0 12.0 8.0 12.0 11.0 10.0 8.0 6.0 9.0 8.0 11.0 9.0 6.0 7.0 10.0 15.0 10.0 8.0
VERTEX_COVER:
1 2 3 6 7 9 11 12 13 15 16 17 20 21 22 23 26 27 28 29
EOF
